
Log started (V11.0.0) Wed May 14 23:32:16 2008

Tried aggregator 1 time.
Reduced MIP has 210 rows, 2001 columns, and 4010 nonzeros.
Presolve time =    0.02 sec.
Clique table members: 200.
MIP emphasis: balance optimality and feasibility.
MIP search method: dynamic search.
Parallel mode: none, using 1 thread.
Root relaxation solution time =    0.05 sec.

        Nodes                                         Cuts/
   Node  Left     Objective  IInf  Best Integer     Best Node    ItCnt     Gap

*     0+    0                         6339.0000     1125.4230      273   82.25%
*     0+    0                         1215.0000     1125.4230      273    7.37%
      0     0     1127.3512    21     1215.0000      Fract: 6      306    7.21%
*     0+    0                         1200.0000     1127.3512      306    6.05%
      0     0     1128.9961    30     1200.0000       Cuts: 8      378    5.92%
*     0+    0                         1198.0000     1128.9961      378    5.76%
      0     0     1129.4362    37     1198.0000       Cuts: 5      437    5.72%
      0     0     1129.4665    38     1198.0000    MIRcuts: 1      453    5.72%
      0     0     1129.4680    42     1198.0000       Cuts: 2      463    5.72%
*     0+    0                         1188.0000     1129.4680      463    4.93%
*     0+    0                         1165.0000     1129.4680      463    3.05%
*     0+    0                         1163.0000     1129.4680      463    2.88%
*     0+    0                         1156.0000     1129.4680      463    2.30%
      0     2     1130.0000    33     1156.0000     1129.4680      463    2.30%
*   100+   96                         1154.0000     1130.0000     4863    2.08%
    100    98     1131.0000    18     1154.0000     1130.0000     4863    2.08%
    200   165     1137.0000    15     1154.0000     1130.0000     8058    2.08%
    300   223     1138.0000    15     1154.0000     1130.0000     9959    2.08%
    400   285     1140.0000    12     1154.0000     1130.0000    11863    2.08%
*   481+  217                         1148.0000     1135.0000    15533    1.13%
*   481+  144                         1143.0000     1135.0000    15533    0.70%
*   481+   96                         1141.0000     1135.0000    15533    0.53%
*   481+   64                         1138.0000     1135.0000    15533    0.26%
    500    72     1135.0000    15     1138.0000     1135.0000    15715    0.26%
    600   121     1135.0000    22     1138.0000     1135.0000    19176    0.26%
    700   119        cutoff           1138.0000     1135.0000    28407    0.26%
    800   112     1137.0000    18     1138.0000     1135.0000    38949    0.26%
    900    79     1137.0000    19     1138.0000     1137.0000    49513    0.09%
   1000     9        cutoff           1138.0000     1137.0000    53578    0.09%
Elapsed time =  11.45 sec. (tree size =  0.01 MB, solutions = 13)

Cover cuts applied:  78
Mixed integer rounding cuts applied:  5

Solution pool: 13 solutions saved.

MIP - Integer optimal solution:  Objective = 1.1380000000e+003
Solution time =   11.64 sec.  Iterations = 55449  Nodes = 1010


Incumbent solution
Variable Name           Solution Value
Cmax                       1138.000000
X_1_6                         1.000000
X_2_10                        1.000000
X_3_7                         1.000000
X_4_1                         1.000000
X_5_5                         1.000000
X_6_3                         1.000000
X_7_5                         1.000000
X_8_6                         1.000000
X_9_7                         1.000000
X_10_1                        1.000000
X_11_7                        1.000000
X_12_7                        1.000000
X_13_8                        1.000000
X_14_9                        1.000000
X_15_9                        1.000000
X_16_9                        1.000000
X_17_5                        1.000000
X_18_10                       1.000000
X_19_10                       1.000000
X_20_7                        1.000000
X_21_10                       1.000000
X_22_10                       1.000000
X_23_10                       1.000000
X_24_3                        1.000000
X_25_2                        1.000000
X_26_7                        1.000000
X_27_10                       1.000000
X_28_10                       1.000000
X_29_8                        1.000000
X_30_10                       1.000000
X_31_8                        1.000000
X_32_7                        1.000000
X_33_1                        1.000000
X_34_4                        1.000000
X_35_10                       1.000000
X_36_4                        1.000000
X_37_9                        1.000000
X_38_5                        1.000000
X_39_6                        1.000000
X_40_3                        1.000000
X_41_3                        1.000000
X_42_2                        1.000000
X_43_5                        1.000000
X_44_5                        1.000000
X_45_10                       1.000000
X_46_10                       1.000000
X_47_4                        1.000000
X_48_3                        1.000000
X_49_9                        1.000000
X_50_3                        1.000000
X_51_5                        1.000000
X_52_1                        1.000000
X_53_10                       1.000000
X_54_8                        1.000000
X_55_10                       1.000000
X_56_10                       1.000000
X_57_6                        1.000000
X_58_10                       1.000000
X_59_3                        1.000000
X_60_10                       1.000000
X_61_9                        1.000000
X_62_6                        1.000000
X_63_3                        1.000000
X_64_8                        1.000000
X_65_8                        1.000000
X_66_2                        1.000000
X_67_3                        1.000000
X_68_1                        1.000000
X_69_1                        1.000000
X_70_10                       1.000000
X_71_3                        1.000000
X_72_6                        1.000000
X_73_8                        1.000000
X_74_10                       1.000000
X_75_10                       1.000000
X_76_10                       1.000000
X_77_9                        1.000000
X_78_10                       1.000000
X_79_10                       1.000000
X_80_1                        1.000000
X_81_2                        1.000000
X_82_10                       1.000000
X_83_6                        1.000000
X_84_3                        1.000000
X_85_10                       1.000000
X_86_10                       1.000000
X_87_10                       1.000000
X_88_9                        1.000000
X_89_10                       1.000000
X_90_9                        1.000000
X_91_6                        1.000000
X_92_6                        1.000000
X_93_4                        1.000000
X_94_9                        1.000000
X_95_8                        1.000000
X_96_3                        1.000000
X_97_3                        1.000000
X_98_8                        1.000000
X_99_1                        1.000000
X_100_3                       1.000000
X_101_10                      1.000000
X_102_10                      1.000000
X_103_10                      1.000000
X_104_2                       1.000000
X_105_3                       1.000000
X_106_6                       1.000000
X_107_10                      1.000000
X_108_7                       1.000000
X_109_6                       1.000000
X_110_6                       1.000000
X_111_6                       1.000000
X_112_10                      1.000000
X_113_3                       1.000000
X_114_3                       1.000000
X_115_2                       1.000000
X_116_1                       1.000000
X_117_7                       1.000000
X_118_1                       1.000000
X_119_10                      1.000000
X_120_6                       1.000000
X_121_6                       1.000000
X_122_3                       1.000000
X_123_5                       1.000000
X_124_3                       1.000000
X_125_2                       1.000000
X_126_2                       1.000000
X_127_4                       1.000000
X_128_3                       1.000000
X_129_2                       1.000000
X_130_3                       1.000000
X_131_6                       1.000000
X_132_4                       1.000000
X_133_8                       1.000000
X_134_6                       1.000000
X_135_6                       1.000000
X_136_3                       1.000000
X_137_3                       1.000000
X_138_10                      1.000000
X_139_6                       1.000000
X_140_4                       1.000000
X_141_4                       1.000000
X_142_10                      1.000000
X_143_3                       1.000000
X_144_4                       1.000000
X_145_8                       1.000000
X_146_4                       1.000000
X_147_3                       1.000000
X_148_3                       1.000000
X_149_10                      1.000000
X_150_9                       1.000000
X_151_3                       1.000000
X_152_3                       1.000000
X_153_10                      1.000000
X_154_6                       1.000000
X_155_9                       1.000000
X_156_3                       1.000000
X_157_1                       1.000000
X_158_4                       1.000000
X_159_1                       1.000000
X_160_3                       1.000000
X_161_9                       1.000000
X_162_6                       1.000000
X_163_10                      1.000000
X_164_5                       1.000000
X_165_10                      1.000000
X_166_6                       1.000000
X_167_5                       1.000000
X_168_3                       1.000000
X_169_6                       1.000000
X_170_2                       1.000000
X_171_3                       1.000000
X_172_10                      1.000000
X_173_10                      1.000000
X_174_7                       1.000000
X_175_3                       1.000000
X_176_6                       1.000000
X_177_3                       1.000000
X_178_6                       1.000000
X_179_2                       1.000000
X_180_10                      1.000000
X_181_7                       1.000000
X_182_7                       1.000000
X_183_6                       1.000000
X_184_9                       1.000000
X_185_6                       1.000000
X_186_5                       1.000000
X_187_8                       1.000000
X_188_3                       1.000000
X_189_10                      1.000000
X_190_3                       1.000000
X_191_8                       1.000000
X_192_3                       1.000000
X_193_10                      1.000000
X_194_10                      1.000000
X_195_10                      1.000000
X_196_5                       1.000000
X_197_6                       1.000000
X_198_6                       1.000000
X_199_9                       1.000000
X_200_9                       1.000000
All other variables in the range 1-2001 are 0.
